p cnf 15 27
-8 2 7 0
-10 14 0
-9 0
10 -12 14 7 0
-2 5 14 15 0
-12 -2 0
8 -1 7 0
-14 -4 7 0
-11 13 -10 -9 0
-2 -9 0
-8 2 0
-8 -7 8 -2 0
-5 4 -10 0
1 -14 0
-9 4 7 0
13 0
13 -6 -3 6 0
-12 12 -2 6 0
-15 -13 13 -9 0
2 -12 -2 0
4 13 -2 0
-10 0
-7 12 0
-8 0
-7 -12 -4 5 0
1 5 0
9 -6 1 -1 0
